;Number of predicates (nodes) = 20
;Number of variables = 6
;Number of clauses = 26
;
(set-logic HORN)
(declare-fun assign_234_38_5 (Int Int Int Int Int Int Int Int Int Int Int Int Int Int Int) Bool)
(declare-fun assign_225_37_5 (Int Int Int Int Int Int Int Int Int Int Int Int Int Int Int) Bool)
(declare-fun assert_191_32_2 (Int Int Int Int Int Int Int Int Int Int Int Int Int Int Int) Bool)
(declare-fun assert_213_35_2 (Int Int Int Int Int Int Int Int Int Int Int Int Int Int Int) Bool)
(declare-fun if_216_31_5 (Int Int Int Int Int Int Int Int Int Int Int Int Int Int Int) Bool)
(declare-fun while_237_30_1 (Int Int Int Int Int Int Int Int Int Int Int Int Int Int Int) Bool)
(declare-fun assign_157_29_1 (Int Int Int Int Int Int Int Int Int Int Int Int Int Int Int) Bool)
(declare-fun assign_151_28_1 (Int Int Int Int Int Int Int Int Int Int Int Int Int Int Int) Bool)
(declare-fun assign_145_26_1 (Int Int Int Int Int Int Int Int Int Int Int Int Int Int Int) Bool)
(declare-fun assign_127_23_5 (Int Int Int Int Int Int Int Int Int Int Int Int Int Int Int) Bool)
(declare-fun arrayassign_118_22_5 (Int Int Int Int Int Int Int Int Int Int Int Int Int Int Int) Bool)
(declare-fun while_130_21_1 (Int Int Int Int Int Int Int Int Int Int Int Int Int Int Int) Bool)
(declare-fun assign_96_20_1 (Int Int Int Int Int Int Int Int Int Int Int Int Int Int Int) Bool)
(declare-fun assign_87_17_5 (Int Int Int Int Int Int Int Int Int Int Int Int Int Int Int) Bool)
(declare-fun arrayassign_78_16_5 (Int Int Int Int Int Int Int Int Int Int Int Int Int Int Int) Bool)
(declare-fun while_90_15_1 (Int Int Int Int Int Int Int Int Int Int Int Int Int Int Int) Bool)
(declare-fun assign_56_14_1 (Int Int Int Int Int Int Int Int Int Int Int Int Int Int Int) Bool)
(declare-fun assign_50_12_1 (Int Int Int Int Int Int Int Int Int Int Int Int Int Int Int) Bool)
(declare-fun end (Int Int Int Int Int Int Int Int Int Int Int Int Int Int Int) Bool)
(declare-fun start (Int Int Int Int Int Int Int Int Int Int Int Int Int Int Int) Bool)
(assert (forall ((a0_ind Int) (a0_val Int) (a1_ind Int) (a1_val Int) (b0_ind Int) (b0_val Int) (b1_ind Int) (b1_val Int) (i Int) (modul Int) (res0_ind Int) (res0_val Int) (res1_ind Int) (res1_val Int) (size Int)) (=> (and (< a0_ind a1_ind) (< b0_ind b1_ind) (< res0_ind res1_ind)) (start res0_ind res0_val res1_ind res1_val b0_ind b0_val b1_ind b1_val a0_ind a0_val a1_ind a1_val modul size i))))
(assert (forall ((a0_ind Int) (a0_val Int) (a1_ind Int) (a1_val Int) (b0_ind Int) (b0_val Int) (b1_ind Int) (b1_val Int) (i Int) (modul Int) (res0_ind Int) (res0_val Int) (res1_ind Int) (res1_val Int) (size Int)) (=> (and (< a0_ind a1_ind) (< b0_ind b1_ind) (< res0_ind res1_ind) (start res0_ind res0_val res1_ind res1_val b0_ind b0_val b1_ind b1_val a0_ind a0_val a1_ind a1_val modul size i)) (assign_50_12_1 res0_ind res0_val res1_ind res1_val b0_ind b0_val b1_ind b1_val a0_ind a0_val a1_ind a1_val modul size i))))
;
;(assign)  size := Support.random()
(assert (forall ((a0_ind Int) (a0_val Int) (a1_ind Int) (a1_val Int) (b0_ind Int) (b0_val Int) (b1_ind Int) (b1_val Int) (i Int) (modul Int) (res0_ind Int) (res0_val Int) (res1_ind Int) (res1_val Int) (rnd Int) (size Int)) (=> (and (< a0_ind a1_ind) (< b0_ind b1_ind) (< res0_ind res1_ind) (assign_50_12_1 res0_ind res0_val res1_ind res1_val b0_ind b0_val b1_ind b1_val a0_ind a0_val a1_ind a1_val modul size i)) (assign_56_14_1 res0_ind res0_val res1_ind res1_val b0_ind b0_val b1_ind b1_val a0_ind a0_val a1_ind a1_val modul rnd i))))
;
;(assign)  i := 0
(assert (forall ((a0_ind Int) (a0_val Int) (a1_ind Int) (a1_val Int) (b0_ind Int) (b0_val Int) (b1_ind Int) (b1_val Int) (i Int) (modul Int) (res0_ind Int) (res0_val Int) (res1_ind Int) (res1_val Int) (size Int)) (=> (and (< a0_ind a1_ind) (< b0_ind b1_ind) (< res0_ind res1_ind) (assign_56_14_1 res0_ind res0_val res1_ind res1_val b0_ind b0_val b1_ind b1_val a0_ind a0_val a1_ind a1_val modul size i)) (while_90_15_1 res0_ind res0_val res1_ind res1_val b0_ind b0_val b1_ind b1_val a0_ind a0_val a1_ind a1_val modul size 0))))
;
;(while)   while((i<size))
(assert (forall ((a0_ind Int) (a0_val Int) (a1_ind Int) (a1_val Int) (b0_ind Int) (b0_val Int) (b1_ind Int) (b1_val Int) (i Int) (modul Int) (res0_ind Int) (res0_val Int) (res1_ind Int) (res1_val Int) (size Int)) (=> (and (< a0_ind a1_ind) (< b0_ind b1_ind) (< res0_ind res1_ind) (while_90_15_1 res0_ind res0_val res1_ind res1_val b0_ind b0_val b1_ind b1_val a0_ind a0_val a1_ind a1_val modul size i) (< i size)) (arrayassign_78_16_5 res0_ind res0_val res1_ind res1_val b0_ind b0_val b1_ind b1_val a0_ind a0_val a1_ind a1_val modul size i))))
(assert (forall ((a0_ind Int) (a0_val Int) (a1_ind Int) (a1_val Int) (b0_ind Int) (b0_val Int) (b1_ind Int) (b1_val Int) (i Int) (modul Int) (res0_ind Int) (res0_val Int) (res1_ind Int) (res1_val Int) (size Int)) (=> (and (< a0_ind a1_ind) (< b0_ind b1_ind) (< res0_ind res1_ind) (while_90_15_1 res0_ind res0_val res1_ind res1_val b0_ind b0_val b1_ind b1_val a0_ind a0_val a1_ind a1_val modul size i) (not (< i size))) (assign_96_20_1 res0_ind res0_val res1_ind res1_val b0_ind b0_val b1_ind b1_val a0_ind a0_val a1_ind a1_val modul size i))))
;
;(aassign) res[i] := a[i]
(assert (forall ((a0_ind Int) (a0_val Int) (a1_ind Int) (a1_val Int) (b0_ind Int) (b0_val Int) (b1_ind Int) (b1_val Int) (i Int) (modul Int) (res0_ind Int) (res0_val Int) (res1_ind Int) (res1_val Int) (size Int) (tmp_select_a Int) (tmp_store_res0_ind Int) (tmp_store_res0_val Int) (tmp_store_res1_ind Int) (tmp_store_res1_val Int)) (=> (and (< a0_ind a1_ind) (< b0_ind b1_ind) (< res0_ind res1_ind) (arrayassign_78_16_5 res0_ind res0_val res1_ind res1_val b0_ind b0_val b1_ind b1_val a0_ind a0_val a1_ind a1_val modul size i) (or (and (= a0_ind i) (= tmp_select_a a0_val)) (and (= a1_ind i) (= tmp_select_a a1_val)) (and (< i a0_ind) (< i a1_ind) (arrayassign_78_16_5 res0_ind res0_val res1_ind res1_val b0_ind b0_val b1_ind b1_val i tmp_select_a a1_ind a1_val modul size i) (< i a0_ind) (arrayassign_78_16_5 res0_ind res0_val res1_ind res1_val b0_ind b0_val b1_ind b1_val i tmp_select_a a0_ind a0_val modul size i)) (and (< a0_ind i) (< i a1_ind) (< i a1_ind) (arrayassign_78_16_5 res0_ind res0_val res1_ind res1_val b0_ind b0_val b1_ind b1_val i tmp_select_a a1_ind a1_val modul size i) (< a0_ind i) (arrayassign_78_16_5 res0_ind res0_val res1_ind res1_val b0_ind b0_val b1_ind b1_val a0_ind a0_val i tmp_select_a modul size i)) (and (< a1_ind i) (< a1_ind i) (arrayassign_78_16_5 res0_ind res0_val res1_ind res1_val b0_ind b0_val b1_ind b1_val a1_ind a1_val i tmp_select_a modul size i) (< a0_ind i) (arrayassign_78_16_5 res0_ind res0_val res1_ind res1_val b0_ind b0_val b1_ind b1_val a0_ind a0_val i tmp_select_a modul size i))) (= tmp_store_res0_ind res0_ind) (= tmp_store_res1_ind res1_ind) (or (and (= res0_ind i) (= tmp_store_res1_val res1_val) (= tmp_store_res0_val tmp_select_a)) (and (= res1_ind i) (= tmp_store_res0_val res0_val) (= tmp_store_res1_val tmp_select_a)) (and (not (= res0_ind i)) (not (= res1_ind i)) (= tmp_store_res0_val res0_val) (= tmp_store_res1_val res1_val)))) (assign_87_17_5 tmp_store_res0_ind tmp_store_res0_val tmp_store_res1_ind tmp_store_res1_val b0_ind b0_val b1_ind b1_val a0_ind a0_val a1_ind a1_val modul size i))))
;
;(assign)  i := (i+2)
(assert (forall ((a0_ind Int) (a0_val Int) (a1_ind Int) (a1_val Int) (b0_ind Int) (b0_val Int) (b1_ind Int) (b1_val Int) (i Int) (modul Int) (res0_ind Int) (res0_val Int) (res1_ind Int) (res1_val Int) (size Int)) (=> (and (< a0_ind a1_ind) (< b0_ind b1_ind) (< res0_ind res1_ind) (assign_87_17_5 res0_ind res0_val res1_ind res1_val b0_ind b0_val b1_ind b1_val a0_ind a0_val a1_ind a1_val modul size i)) (while_90_15_1 res0_ind res0_val res1_ind res1_val b0_ind b0_val b1_ind b1_val a0_ind a0_val a1_ind a1_val modul size (+ i 2)))))
;
;(assign)  i := 1
(assert (forall ((a0_ind Int) (a0_val Int) (a1_ind Int) (a1_val Int) (b0_ind Int) (b0_val Int) (b1_ind Int) (b1_val Int) (i Int) (modul Int) (res0_ind Int) (res0_val Int) (res1_ind Int) (res1_val Int) (size Int)) (=> (and (< a0_ind a1_ind) (< b0_ind b1_ind) (< res0_ind res1_ind) (assign_96_20_1 res0_ind res0_val res1_ind res1_val b0_ind b0_val b1_ind b1_val a0_ind a0_val a1_ind a1_val modul size i)) (while_130_21_1 res0_ind res0_val res1_ind res1_val b0_ind b0_val b1_ind b1_val a0_ind a0_val a1_ind a1_val modul size 1))))
;
;(while)   while((i<size))
(assert (forall ((a0_ind Int) (a0_val Int) (a1_ind Int) (a1_val Int) (b0_ind Int) (b0_val Int) (b1_ind Int) (b1_val Int) (i Int) (modul Int) (res0_ind Int) (res0_val Int) (res1_ind Int) (res1_val Int) (size Int)) (=> (and (< a0_ind a1_ind) (< b0_ind b1_ind) (< res0_ind res1_ind) (while_130_21_1 res0_ind res0_val res1_ind res1_val b0_ind b0_val b1_ind b1_val a0_ind a0_val a1_ind a1_val modul size i) (< i size)) (arrayassign_118_22_5 res0_ind res0_val res1_ind res1_val b0_ind b0_val b1_ind b1_val a0_ind a0_val a1_ind a1_val modul size i))))
(assert (forall ((a0_ind Int) (a0_val Int) (a1_ind Int) (a1_val Int) (b0_ind Int) (b0_val Int) (b1_ind Int) (b1_val Int) (i Int) (modul Int) (res0_ind Int) (res0_val Int) (res1_ind Int) (res1_val Int) (size Int)) (=> (and (< a0_ind a1_ind) (< b0_ind b1_ind) (< res0_ind res1_ind) (while_130_21_1 res0_ind res0_val res1_ind res1_val b0_ind b0_val b1_ind b1_val a0_ind a0_val a1_ind a1_val modul size i) (not (< i size))) (assign_145_26_1 res0_ind res0_val res1_ind res1_val b0_ind b0_val b1_ind b1_val a0_ind a0_val a1_ind a1_val modul size i))))
;
;(aassign) res[i] := b[i]
(assert (forall ((a0_ind Int) (a0_val Int) (a1_ind Int) (a1_val Int) (b0_ind Int) (b0_val Int) (b1_ind Int) (b1_val Int) (i Int) (modul Int) (res0_ind Int) (res0_val Int) (res1_ind Int) (res1_val Int) (size Int) (tmp_select_b Int) (tmp_store_res0_ind Int) (tmp_store_res0_val Int) (tmp_store_res1_ind Int) (tmp_store_res1_val Int)) (=> (and (< a0_ind a1_ind) (< b0_ind b1_ind) (< res0_ind res1_ind) (arrayassign_118_22_5 res0_ind res0_val res1_ind res1_val b0_ind b0_val b1_ind b1_val a0_ind a0_val a1_ind a1_val modul size i) (or (and (= b0_ind i) (= tmp_select_b b0_val)) (and (= b1_ind i) (= tmp_select_b b1_val)) (and (< i b0_ind) (< i b1_ind) (arrayassign_118_22_5 res0_ind res0_val res1_ind res1_val i tmp_select_b b1_ind b1_val a0_ind a0_val a1_ind a1_val modul size i) (< i b0_ind) (arrayassign_118_22_5 res0_ind res0_val res1_ind res1_val i tmp_select_b b0_ind b0_val a0_ind a0_val a1_ind a1_val modul size i)) (and (< b0_ind i) (< i b1_ind) (< i b1_ind) (arrayassign_118_22_5 res0_ind res0_val res1_ind res1_val i tmp_select_b b1_ind b1_val a0_ind a0_val a1_ind a1_val modul size i) (< b0_ind i) (arrayassign_118_22_5 res0_ind res0_val res1_ind res1_val b0_ind b0_val i tmp_select_b a0_ind a0_val a1_ind a1_val modul size i)) (and (< b1_ind i) (< b1_ind i) (arrayassign_118_22_5 res0_ind res0_val res1_ind res1_val b1_ind b1_val i tmp_select_b a0_ind a0_val a1_ind a1_val modul size i) (< b0_ind i) (arrayassign_118_22_5 res0_ind res0_val res1_ind res1_val b0_ind b0_val i tmp_select_b a0_ind a0_val a1_ind a1_val modul size i))) (= tmp_store_res0_ind res0_ind) (= tmp_store_res1_ind res1_ind) (or (and (= res0_ind i) (= tmp_store_res1_val res1_val) (= tmp_store_res0_val tmp_select_b)) (and (= res1_ind i) (= tmp_store_res0_val res0_val) (= tmp_store_res1_val tmp_select_b)) (and (not (= res0_ind i)) (not (= res1_ind i)) (= tmp_store_res0_val res0_val) (= tmp_store_res1_val res1_val)))) (assign_127_23_5 tmp_store_res0_ind tmp_store_res0_val tmp_store_res1_ind tmp_store_res1_val b0_ind b0_val b1_ind b1_val a0_ind a0_val a1_ind a1_val modul size i))))
;
;(assign)  i := (i+2)
(assert (forall ((a0_ind Int) (a0_val Int) (a1_ind Int) (a1_val Int) (b0_ind Int) (b0_val Int) (b1_ind Int) (b1_val Int) (i Int) (modul Int) (res0_ind Int) (res0_val Int) (res1_ind Int) (res1_val Int) (size Int)) (=> (and (< a0_ind a1_ind) (< b0_ind b1_ind) (< res0_ind res1_ind) (assign_127_23_5 res0_ind res0_val res1_ind res1_val b0_ind b0_val b1_ind b1_val a0_ind a0_val a1_ind a1_val modul size i)) (while_130_21_1 res0_ind res0_val res1_ind res1_val b0_ind b0_val b1_ind b1_val a0_ind a0_val a1_ind a1_val modul size (+ i 2)))))
;
;(assign)  k := Support.random(0, size)
(assert (forall ((a0_ind Int) (a0_val Int) (a1_ind Int) (a1_val Int) (b0_ind Int) (b0_val Int) (b1_ind Int) (b1_val Int) (i Int) (modul Int) (res0_ind Int) (res0_val Int) (res1_ind Int) (res1_val Int) (rnd Int) (size Int)) (=> (and (< a0_ind a1_ind) (< b0_ind b1_ind) (< res0_ind res1_ind) (assign_145_26_1 res0_ind res0_val res1_ind res1_val b0_ind b0_val b1_ind b1_val a0_ind a0_val a1_ind a1_val modul size i) (>= rnd 0) (< rnd size)) (assign_151_28_1 res0_ind res0_val res1_ind res1_val b0_ind b0_val b1_ind b1_val a0_ind a0_val a1_ind a1_val modul size i))))
;
;(assign)  i := 0
(assert (forall ((a0_ind Int) (a0_val Int) (a1_ind Int) (a1_val Int) (b0_ind Int) (b0_val Int) (b1_ind Int) (b1_val Int) (i Int) (modul Int) (res0_ind Int) (res0_val Int) (res1_ind Int) (res1_val Int) (size Int)) (=> (and (< a0_ind a1_ind) (< b0_ind b1_ind) (< res0_ind res1_ind) (assign_151_28_1 res0_ind res0_val res1_ind res1_val b0_ind b0_val b1_ind b1_val a0_ind a0_val a1_ind a1_val modul size i)) (assign_157_29_1 res0_ind res0_val res1_ind res1_val b0_ind b0_val b1_ind b1_val a0_ind a0_val a1_ind a1_val modul size 0))))
;
;(assign)  modul := 1
(assert (forall ((a0_ind Int) (a0_val Int) (a1_ind Int) (a1_val Int) (b0_ind Int) (b0_val Int) (b1_ind Int) (b1_val Int) (i Int) (modul Int) (res0_ind Int) (res0_val Int) (res1_ind Int) (res1_val Int) (size Int)) (=> (and (< a0_ind a1_ind) (< b0_ind b1_ind) (< res0_ind res1_ind) (assign_157_29_1 res0_ind res0_val res1_ind res1_val b0_ind b0_val b1_ind b1_val a0_ind a0_val a1_ind a1_val modul size i)) (while_237_30_1 res0_ind res0_val res1_ind res1_val b0_ind b0_val b1_ind b1_val a0_ind a0_val a1_ind a1_val 1 size i))))
;
;(while)   while((i<size))
(assert (forall ((a0_ind Int) (a0_val Int) (a1_ind Int) (a1_val Int) (b0_ind Int) (b0_val Int) (b1_ind Int) (b1_val Int) (i Int) (modul Int) (res0_ind Int) (res0_val Int) (res1_ind Int) (res1_val Int) (size Int)) (=> (and (< a0_ind a1_ind) (< b0_ind b1_ind) (< res0_ind res1_ind) (while_237_30_1 res0_ind res0_val res1_ind res1_val b0_ind b0_val b1_ind b1_val a0_ind a0_val a1_ind a1_val modul size i) (< i size)) (if_216_31_5 res0_ind res0_val res1_ind res1_val b0_ind b0_val b1_ind b1_val a0_ind a0_val a1_ind a1_val modul size i))))
(assert (forall ((a0_ind Int) (a0_val Int) (a1_ind Int) (a1_val Int) (b0_ind Int) (b0_val Int) (b1_ind Int) (b1_val Int) (i Int) (modul Int) (res0_ind Int) (res0_val Int) (res1_ind Int) (res1_val Int) (size Int)) (=> (and (< a0_ind a1_ind) (< b0_ind b1_ind) (< res0_ind res1_ind) (while_237_30_1 res0_ind res0_val res1_ind res1_val b0_ind b0_val b1_ind b1_val a0_ind a0_val a1_ind a1_val modul size i) (not (< i size))) (end res0_ind res0_val res1_ind res1_val b0_ind b0_val b1_ind b1_val a0_ind a0_val a1_ind a1_val modul size i))))
;
;(if)      if((modul==0))
(assert (forall ((a0_ind Int) (a0_val Int) (a1_ind Int) (a1_val Int) (b0_ind Int) (b0_val Int) (b1_ind Int) (b1_val Int) (i Int) (modul Int) (res0_ind Int) (res0_val Int) (res1_ind Int) (res1_val Int) (size Int)) (=> (and (< a0_ind a1_ind) (< b0_ind b1_ind) (< res0_ind res1_ind) (if_216_31_5 res0_ind res0_val res1_ind res1_val b0_ind b0_val b1_ind b1_val a0_ind a0_val a1_ind a1_val modul size i) (= modul 0)) (assert_191_32_2 res0_ind res0_val res1_ind res1_val b0_ind b0_val b1_ind b1_val a0_ind a0_val a1_ind a1_val modul size i))))
(assert (forall ((a0_ind Int) (a0_val Int) (a1_ind Int) (a1_val Int) (b0_ind Int) (b0_val Int) (b1_ind Int) (b1_val Int) (i Int) (modul Int) (res0_ind Int) (res0_val Int) (res1_ind Int) (res1_val Int) (size Int)) (=> (and (< a0_ind a1_ind) (< b0_ind b1_ind) (< res0_ind res1_ind) (if_216_31_5 res0_ind res0_val res1_ind res1_val b0_ind b0_val b1_ind b1_val a0_ind a0_val a1_ind a1_val modul size i) (not (= modul 0))) (assert_213_35_2 res0_ind res0_val res1_ind res1_val b0_ind b0_val b1_ind b1_val a0_ind a0_val a1_ind a1_val modul size i))))
;
;(assert)  (res[i]==a[i])
(assert (forall ((a0_ind Int) (a0_val Int) (a1_ind Int) (a1_val Int) (b0_ind Int) (b0_val Int) (b1_ind Int) (b1_val Int) (i Int) (modul Int) (res0_ind Int) (res0_val Int) (res1_ind Int) (res1_val Int) (size Int) (tmp_select_a Int) (tmp_select_res Int)) (=> (and (< a0_ind a1_ind) (< b0_ind b1_ind) (< res0_ind res1_ind) (assert_191_32_2 res0_ind res0_val res1_ind res1_val b0_ind b0_val b1_ind b1_val a0_ind a0_val a1_ind a1_val modul size i) (or (and (= res0_ind i) (= tmp_select_res res0_val)) (and (= res1_ind i) (= tmp_select_res res1_val)) (and (< i res0_ind) (< i res1_ind) (assert_191_32_2 i tmp_select_res res1_ind res1_val b0_ind b0_val b1_ind b1_val a0_ind a0_val a1_ind a1_val modul size i) (< i res0_ind) (assert_191_32_2 i tmp_select_res res0_ind res0_val b0_ind b0_val b1_ind b1_val a0_ind a0_val a1_ind a1_val modul size i)) (and (< res0_ind i) (< i res1_ind) (< i res1_ind) (assert_191_32_2 i tmp_select_res res1_ind res1_val b0_ind b0_val b1_ind b1_val a0_ind a0_val a1_ind a1_val modul size i) (< res0_ind i) (assert_191_32_2 res0_ind res0_val i tmp_select_res b0_ind b0_val b1_ind b1_val a0_ind a0_val a1_ind a1_val modul size i)) (and (< res1_ind i) (< res1_ind i) (assert_191_32_2 res1_ind res1_val i tmp_select_res b0_ind b0_val b1_ind b1_val a0_ind a0_val a1_ind a1_val modul size i) (< res0_ind i) (assert_191_32_2 res0_ind res0_val i tmp_select_res b0_ind b0_val b1_ind b1_val a0_ind a0_val a1_ind a1_val modul size i))) (or (and (= a0_ind i) (= tmp_select_a a0_val)) (and (= a1_ind i) (= tmp_select_a a1_val)) (and (< i a0_ind) (< i a1_ind) (assert_191_32_2 res0_ind res0_val res1_ind res1_val b0_ind b0_val b1_ind b1_val i tmp_select_a a1_ind a1_val modul size i) (or (and (= res0_ind i) (= tmp_select_res res0_val)) (and (= res1_ind i) (= tmp_select_res res1_val)) (and (< i res0_ind) (< i res1_ind) (assert_191_32_2 i tmp_select_res res1_ind res1_val b0_ind b0_val b1_ind b1_val i tmp_select_a a1_ind a1_val modul size i) (< i res0_ind) (assert_191_32_2 i tmp_select_res res0_ind res0_val b0_ind b0_val b1_ind b1_val i tmp_select_a a1_ind a1_val modul size i)) (and (< res0_ind i) (< i res1_ind) (< i res1_ind) (assert_191_32_2 i tmp_select_res res1_ind res1_val b0_ind b0_val b1_ind b1_val i tmp_select_a a1_ind a1_val modul size i) (< res0_ind i) (assert_191_32_2 res0_ind res0_val i tmp_select_res b0_ind b0_val b1_ind b1_val i tmp_select_a a1_ind a1_val modul size i)) (and (< res1_ind i) (< res1_ind i) (assert_191_32_2 res1_ind res1_val i tmp_select_res b0_ind b0_val b1_ind b1_val i tmp_select_a a1_ind a1_val modul size i) (< res0_ind i) (assert_191_32_2 res0_ind res0_val i tmp_select_res b0_ind b0_val b1_ind b1_val i tmp_select_a a1_ind a1_val modul size i))) (< i a0_ind) (assert_191_32_2 res0_ind res0_val res1_ind res1_val b0_ind b0_val b1_ind b1_val i tmp_select_a a0_ind a0_val modul size i) (or (and (= res0_ind i) (= tmp_select_res res0_val)) (and (= res1_ind i) (= tmp_select_res res1_val)) (and (< i res0_ind) (< i res1_ind) (assert_191_32_2 i tmp_select_res res1_ind res1_val b0_ind b0_val b1_ind b1_val i tmp_select_a a0_ind a0_val modul size i) (< i res0_ind) (assert_191_32_2 i tmp_select_res res0_ind res0_val b0_ind b0_val b1_ind b1_val i tmp_select_a a0_ind a0_val modul size i)) (and (< res0_ind i) (< i res1_ind) (< i res1_ind) (assert_191_32_2 i tmp_select_res res1_ind res1_val b0_ind b0_val b1_ind b1_val i tmp_select_a a0_ind a0_val modul size i) (< res0_ind i) (assert_191_32_2 res0_ind res0_val i tmp_select_res b0_ind b0_val b1_ind b1_val i tmp_select_a a0_ind a0_val modul size i)) (and (< res1_ind i) (< res1_ind i) (assert_191_32_2 res1_ind res1_val i tmp_select_res b0_ind b0_val b1_ind b1_val i tmp_select_a a0_ind a0_val modul size i) (< res0_ind i) (assert_191_32_2 res0_ind res0_val i tmp_select_res b0_ind b0_val b1_ind b1_val i tmp_select_a a0_ind a0_val modul size i)))) (and (< a0_ind i) (< i a1_ind) (< i a1_ind) (assert_191_32_2 res0_ind res0_val res1_ind res1_val b0_ind b0_val b1_ind b1_val i tmp_select_a a1_ind a1_val modul size i) (or (and (= res0_ind i) (= tmp_select_res res0_val)) (and (= res1_ind i) (= tmp_select_res res1_val)) (and (< i res0_ind) (< i res1_ind) (assert_191_32_2 i tmp_select_res res1_ind res1_val b0_ind b0_val b1_ind b1_val i tmp_select_a a1_ind a1_val modul size i) (< i res0_ind) (assert_191_32_2 i tmp_select_res res0_ind res0_val b0_ind b0_val b1_ind b1_val i tmp_select_a a1_ind a1_val modul size i)) (and (< res0_ind i) (< i res1_ind) (< i res1_ind) (assert_191_32_2 i tmp_select_res res1_ind res1_val b0_ind b0_val b1_ind b1_val i tmp_select_a a1_ind a1_val modul size i) (< res0_ind i) (assert_191_32_2 res0_ind res0_val i tmp_select_res b0_ind b0_val b1_ind b1_val i tmp_select_a a1_ind a1_val modul size i)) (and (< res1_ind i) (< res1_ind i) (assert_191_32_2 res1_ind res1_val i tmp_select_res b0_ind b0_val b1_ind b1_val i tmp_select_a a1_ind a1_val modul size i) (< res0_ind i) (assert_191_32_2 res0_ind res0_val i tmp_select_res b0_ind b0_val b1_ind b1_val i tmp_select_a a1_ind a1_val modul size i))) (< a0_ind i) (assert_191_32_2 res0_ind res0_val res1_ind res1_val b0_ind b0_val b1_ind b1_val a0_ind a0_val i tmp_select_a modul size i) (or (and (= res0_ind i) (= tmp_select_res res0_val)) (and (= res1_ind i) (= tmp_select_res res1_val)) (and (< i res0_ind) (< i res1_ind) (assert_191_32_2 i tmp_select_res res1_ind res1_val b0_ind b0_val b1_ind b1_val a0_ind a0_val i tmp_select_a modul size i) (< i res0_ind) (assert_191_32_2 i tmp_select_res res0_ind res0_val b0_ind b0_val b1_ind b1_val a0_ind a0_val i tmp_select_a modul size i)) (and (< res0_ind i) (< i res1_ind) (< i res1_ind) (assert_191_32_2 i tmp_select_res res1_ind res1_val b0_ind b0_val b1_ind b1_val a0_ind a0_val i tmp_select_a modul size i) (< res0_ind i) (assert_191_32_2 res0_ind res0_val i tmp_select_res b0_ind b0_val b1_ind b1_val a0_ind a0_val i tmp_select_a modul size i)) (and (< res1_ind i) (< res1_ind i) (assert_191_32_2 res1_ind res1_val i tmp_select_res b0_ind b0_val b1_ind b1_val a0_ind a0_val i tmp_select_a modul size i) (< res0_ind i) (assert_191_32_2 res0_ind res0_val i tmp_select_res b0_ind b0_val b1_ind b1_val a0_ind a0_val i tmp_select_a modul size i)))) (and (< a1_ind i) (< a1_ind i) (assert_191_32_2 res0_ind res0_val res1_ind res1_val b0_ind b0_val b1_ind b1_val a1_ind a1_val i tmp_select_a modul size i) (or (and (= res0_ind i) (= tmp_select_res res0_val)) (and (= res1_ind i) (= tmp_select_res res1_val)) (and (< i res0_ind) (< i res1_ind) (assert_191_32_2 i tmp_select_res res1_ind res1_val b0_ind b0_val b1_ind b1_val a1_ind a1_val i tmp_select_a modul size i) (< i res0_ind) (assert_191_32_2 i tmp_select_res res0_ind res0_val b0_ind b0_val b1_ind b1_val a1_ind a1_val i tmp_select_a modul size i)) (and (< res0_ind i) (< i res1_ind) (< i res1_ind) (assert_191_32_2 i tmp_select_res res1_ind res1_val b0_ind b0_val b1_ind b1_val a1_ind a1_val i tmp_select_a modul size i) (< res0_ind i) (assert_191_32_2 res0_ind res0_val i tmp_select_res b0_ind b0_val b1_ind b1_val a1_ind a1_val i tmp_select_a modul size i)) (and (< res1_ind i) (< res1_ind i) (assert_191_32_2 res1_ind res1_val i tmp_select_res b0_ind b0_val b1_ind b1_val a1_ind a1_val i tmp_select_a modul size i) (< res0_ind i) (assert_191_32_2 res0_ind res0_val i tmp_select_res b0_ind b0_val b1_ind b1_val a1_ind a1_val i tmp_select_a modul size i))) (< a0_ind i) (assert_191_32_2 res0_ind res0_val res1_ind res1_val b0_ind b0_val b1_ind b1_val a0_ind a0_val i tmp_select_a modul size i) (or (and (= res0_ind i) (= tmp_select_res res0_val)) (and (= res1_ind i) (= tmp_select_res res1_val)) (and (< i res0_ind) (< i res1_ind) (assert_191_32_2 i tmp_select_res res1_ind res1_val b0_ind b0_val b1_ind b1_val a0_ind a0_val i tmp_select_a modul size i) (< i res0_ind) (assert_191_32_2 i tmp_select_res res0_ind res0_val b0_ind b0_val b1_ind b1_val a0_ind a0_val i tmp_select_a modul size i)) (and (< res0_ind i) (< i res1_ind) (< i res1_ind) (assert_191_32_2 i tmp_select_res res1_ind res1_val b0_ind b0_val b1_ind b1_val a0_ind a0_val i tmp_select_a modul size i) (< res0_ind i) (assert_191_32_2 res0_ind res0_val i tmp_select_res b0_ind b0_val b1_ind b1_val a0_ind a0_val i tmp_select_a modul size i)) (and (< res1_ind i) (< res1_ind i) (assert_191_32_2 res1_ind res1_val i tmp_select_res b0_ind b0_val b1_ind b1_val a0_ind a0_val i tmp_select_a modul size i) (< res0_ind i) (assert_191_32_2 res0_ind res0_val i tmp_select_res b0_ind b0_val b1_ind b1_val a0_ind a0_val i tmp_select_a modul size i)))))) (= tmp_select_res tmp_select_a))))
(assert (forall ((a0_ind Int) (a0_val Int) (a1_ind Int) (a1_val Int) (b0_ind Int) (b0_val Int) (b1_ind Int) (b1_val Int) (i Int) (modul Int) (res0_ind Int) (res0_val Int) (res1_ind Int) (res1_val Int) (size Int)) (=> (and (< a0_ind a1_ind) (< b0_ind b1_ind) (< res0_ind res1_ind) (assert_191_32_2 res0_ind res0_val res1_ind res1_val b0_ind b0_val b1_ind b1_val a0_ind a0_val a1_ind a1_val modul size i)) (assign_225_37_5 res0_ind res0_val res1_ind res1_val b0_ind b0_val b1_ind b1_val a0_ind a0_val a1_ind a1_val modul size i))))
;
;(assert)  (res[i]==b[i])
(assert (forall ((a0_ind Int) (a0_val Int) (a1_ind Int) (a1_val Int) (b0_ind Int) (b0_val Int) (b1_ind Int) (b1_val Int) (i Int) (modul Int) (res0_ind Int) (res0_val Int) (res1_ind Int) (res1_val Int) (size Int) (tmp_select_b Int) (tmp_select_res Int)) (=> (and (< a0_ind a1_ind) (< b0_ind b1_ind) (< res0_ind res1_ind) (assert_213_35_2 res0_ind res0_val res1_ind res1_val b0_ind b0_val b1_ind b1_val a0_ind a0_val a1_ind a1_val modul size i) (or (and (= res0_ind i) (= tmp_select_res res0_val)) (and (= res1_ind i) (= tmp_select_res res1_val)) (and (< i res0_ind) (< i res1_ind) (assert_213_35_2 i tmp_select_res res1_ind res1_val b0_ind b0_val b1_ind b1_val a0_ind a0_val a1_ind a1_val modul size i) (< i res0_ind) (assert_213_35_2 i tmp_select_res res0_ind res0_val b0_ind b0_val b1_ind b1_val a0_ind a0_val a1_ind a1_val modul size i)) (and (< res0_ind i) (< i res1_ind) (< i res1_ind) (assert_213_35_2 i tmp_select_res res1_ind res1_val b0_ind b0_val b1_ind b1_val a0_ind a0_val a1_ind a1_val modul size i) (< res0_ind i) (assert_213_35_2 res0_ind res0_val i tmp_select_res b0_ind b0_val b1_ind b1_val a0_ind a0_val a1_ind a1_val modul size i)) (and (< res1_ind i) (< res1_ind i) (assert_213_35_2 res1_ind res1_val i tmp_select_res b0_ind b0_val b1_ind b1_val a0_ind a0_val a1_ind a1_val modul size i) (< res0_ind i) (assert_213_35_2 res0_ind res0_val i tmp_select_res b0_ind b0_val b1_ind b1_val a0_ind a0_val a1_ind a1_val modul size i))) (or (and (= b0_ind i) (= tmp_select_b b0_val)) (and (= b1_ind i) (= tmp_select_b b1_val)) (and (< i b0_ind) (< i b1_ind) (assert_213_35_2 res0_ind res0_val res1_ind res1_val i tmp_select_b b1_ind b1_val a0_ind a0_val a1_ind a1_val modul size i) (or (and (= res0_ind i) (= tmp_select_res res0_val)) (and (= res1_ind i) (= tmp_select_res res1_val)) (and (< i res0_ind) (< i res1_ind) (assert_213_35_2 i tmp_select_res res1_ind res1_val i tmp_select_b b1_ind b1_val a0_ind a0_val a1_ind a1_val modul size i) (< i res0_ind) (assert_213_35_2 i tmp_select_res res0_ind res0_val i tmp_select_b b1_ind b1_val a0_ind a0_val a1_ind a1_val modul size i)) (and (< res0_ind i) (< i res1_ind) (< i res1_ind) (assert_213_35_2 i tmp_select_res res1_ind res1_val i tmp_select_b b1_ind b1_val a0_ind a0_val a1_ind a1_val modul size i) (< res0_ind i) (assert_213_35_2 res0_ind res0_val i tmp_select_res i tmp_select_b b1_ind b1_val a0_ind a0_val a1_ind a1_val modul size i)) (and (< res1_ind i) (< res1_ind i) (assert_213_35_2 res1_ind res1_val i tmp_select_res i tmp_select_b b1_ind b1_val a0_ind a0_val a1_ind a1_val modul size i) (< res0_ind i) (assert_213_35_2 res0_ind res0_val i tmp_select_res i tmp_select_b b1_ind b1_val a0_ind a0_val a1_ind a1_val modul size i))) (< i b0_ind) (assert_213_35_2 res0_ind res0_val res1_ind res1_val i tmp_select_b b0_ind b0_val a0_ind a0_val a1_ind a1_val modul size i) (or (and (= res0_ind i) (= tmp_select_res res0_val)) (and (= res1_ind i) (= tmp_select_res res1_val)) (and (< i res0_ind) (< i res1_ind) (assert_213_35_2 i tmp_select_res res1_ind res1_val i tmp_select_b b0_ind b0_val a0_ind a0_val a1_ind a1_val modul size i) (< i res0_ind) (assert_213_35_2 i tmp_select_res res0_ind res0_val i tmp_select_b b0_ind b0_val a0_ind a0_val a1_ind a1_val modul size i)) (and (< res0_ind i) (< i res1_ind) (< i res1_ind) (assert_213_35_2 i tmp_select_res res1_ind res1_val i tmp_select_b b0_ind b0_val a0_ind a0_val a1_ind a1_val modul size i) (< res0_ind i) (assert_213_35_2 res0_ind res0_val i tmp_select_res i tmp_select_b b0_ind b0_val a0_ind a0_val a1_ind a1_val modul size i)) (and (< res1_ind i) (< res1_ind i) (assert_213_35_2 res1_ind res1_val i tmp_select_res i tmp_select_b b0_ind b0_val a0_ind a0_val a1_ind a1_val modul size i) (< res0_ind i) (assert_213_35_2 res0_ind res0_val i tmp_select_res i tmp_select_b b0_ind b0_val a0_ind a0_val a1_ind a1_val modul size i)))) (and (< b0_ind i) (< i b1_ind) (< i b1_ind) (assert_213_35_2 res0_ind res0_val res1_ind res1_val i tmp_select_b b1_ind b1_val a0_ind a0_val a1_ind a1_val modul size i) (or (and (= res0_ind i) (= tmp_select_res res0_val)) (and (= res1_ind i) (= tmp_select_res res1_val)) (and (< i res0_ind) (< i res1_ind) (assert_213_35_2 i tmp_select_res res1_ind res1_val i tmp_select_b b1_ind b1_val a0_ind a0_val a1_ind a1_val modul size i) (< i res0_ind) (assert_213_35_2 i tmp_select_res res0_ind res0_val i tmp_select_b b1_ind b1_val a0_ind a0_val a1_ind a1_val modul size i)) (and (< res0_ind i) (< i res1_ind) (< i res1_ind) (assert_213_35_2 i tmp_select_res res1_ind res1_val i tmp_select_b b1_ind b1_val a0_ind a0_val a1_ind a1_val modul size i) (< res0_ind i) (assert_213_35_2 res0_ind res0_val i tmp_select_res i tmp_select_b b1_ind b1_val a0_ind a0_val a1_ind a1_val modul size i)) (and (< res1_ind i) (< res1_ind i) (assert_213_35_2 res1_ind res1_val i tmp_select_res i tmp_select_b b1_ind b1_val a0_ind a0_val a1_ind a1_val modul size i) (< res0_ind i) (assert_213_35_2 res0_ind res0_val i tmp_select_res i tmp_select_b b1_ind b1_val a0_ind a0_val a1_ind a1_val modul size i))) (< b0_ind i) (assert_213_35_2 res0_ind res0_val res1_ind res1_val b0_ind b0_val i tmp_select_b a0_ind a0_val a1_ind a1_val modul size i) (or (and (= res0_ind i) (= tmp_select_res res0_val)) (and (= res1_ind i) (= tmp_select_res res1_val)) (and (< i res0_ind) (< i res1_ind) (assert_213_35_2 i tmp_select_res res1_ind res1_val b0_ind b0_val i tmp_select_b a0_ind a0_val a1_ind a1_val modul size i) (< i res0_ind) (assert_213_35_2 i tmp_select_res res0_ind res0_val b0_ind b0_val i tmp_select_b a0_ind a0_val a1_ind a1_val modul size i)) (and (< res0_ind i) (< i res1_ind) (< i res1_ind) (assert_213_35_2 i tmp_select_res res1_ind res1_val b0_ind b0_val i tmp_select_b a0_ind a0_val a1_ind a1_val modul size i) (< res0_ind i) (assert_213_35_2 res0_ind res0_val i tmp_select_res b0_ind b0_val i tmp_select_b a0_ind a0_val a1_ind a1_val modul size i)) (and (< res1_ind i) (< res1_ind i) (assert_213_35_2 res1_ind res1_val i tmp_select_res b0_ind b0_val i tmp_select_b a0_ind a0_val a1_ind a1_val modul size i) (< res0_ind i) (assert_213_35_2 res0_ind res0_val i tmp_select_res b0_ind b0_val i tmp_select_b a0_ind a0_val a1_ind a1_val modul size i)))) (and (< b1_ind i) (< b1_ind i) (assert_213_35_2 res0_ind res0_val res1_ind res1_val b1_ind b1_val i tmp_select_b a0_ind a0_val a1_ind a1_val modul size i) (or (and (= res0_ind i) (= tmp_select_res res0_val)) (and (= res1_ind i) (= tmp_select_res res1_val)) (and (< i res0_ind) (< i res1_ind) (assert_213_35_2 i tmp_select_res res1_ind res1_val b1_ind b1_val i tmp_select_b a0_ind a0_val a1_ind a1_val modul size i) (< i res0_ind) (assert_213_35_2 i tmp_select_res res0_ind res0_val b1_ind b1_val i tmp_select_b a0_ind a0_val a1_ind a1_val modul size i)) (and (< res0_ind i) (< i res1_ind) (< i res1_ind) (assert_213_35_2 i tmp_select_res res1_ind res1_val b1_ind b1_val i tmp_select_b a0_ind a0_val a1_ind a1_val modul size i) (< res0_ind i) (assert_213_35_2 res0_ind res0_val i tmp_select_res b1_ind b1_val i tmp_select_b a0_ind a0_val a1_ind a1_val modul size i)) (and (< res1_ind i) (< res1_ind i) (assert_213_35_2 res1_ind res1_val i tmp_select_res b1_ind b1_val i tmp_select_b a0_ind a0_val a1_ind a1_val modul size i) (< res0_ind i) (assert_213_35_2 res0_ind res0_val i tmp_select_res b1_ind b1_val i tmp_select_b a0_ind a0_val a1_ind a1_val modul size i))) (< b0_ind i) (assert_213_35_2 res0_ind res0_val res1_ind res1_val b0_ind b0_val i tmp_select_b a0_ind a0_val a1_ind a1_val modul size i) (or (and (= res0_ind i) (= tmp_select_res res0_val)) (and (= res1_ind i) (= tmp_select_res res1_val)) (and (< i res0_ind) (< i res1_ind) (assert_213_35_2 i tmp_select_res res1_ind res1_val b0_ind b0_val i tmp_select_b a0_ind a0_val a1_ind a1_val modul size i) (< i res0_ind) (assert_213_35_2 i tmp_select_res res0_ind res0_val b0_ind b0_val i tmp_select_b a0_ind a0_val a1_ind a1_val modul size i)) (and (< res0_ind i) (< i res1_ind) (< i res1_ind) (assert_213_35_2 i tmp_select_res res1_ind res1_val b0_ind b0_val i tmp_select_b a0_ind a0_val a1_ind a1_val modul size i) (< res0_ind i) (assert_213_35_2 res0_ind res0_val i tmp_select_res b0_ind b0_val i tmp_select_b a0_ind a0_val a1_ind a1_val modul size i)) (and (< res1_ind i) (< res1_ind i) (assert_213_35_2 res1_ind res1_val i tmp_select_res b0_ind b0_val i tmp_select_b a0_ind a0_val a1_ind a1_val modul size i) (< res0_ind i) (assert_213_35_2 res0_ind res0_val i tmp_select_res b0_ind b0_val i tmp_select_b a0_ind a0_val a1_ind a1_val modul size i)))))) (= tmp_select_res tmp_select_b))))
(assert (forall ((a0_ind Int) (a0_val Int) (a1_ind Int) (a1_val Int) (b0_ind Int) (b0_val Int) (b1_ind Int) (b1_val Int) (i Int) (modul Int) (res0_ind Int) (res0_val Int) (res1_ind Int) (res1_val Int) (size Int)) (=> (and (< a0_ind a1_ind) (< b0_ind b1_ind) (< res0_ind res1_ind) (assert_213_35_2 res0_ind res0_val res1_ind res1_val b0_ind b0_val b1_ind b1_val a0_ind a0_val a1_ind a1_val modul size i)) (assign_225_37_5 res0_ind res0_val res1_ind res1_val b0_ind b0_val b1_ind b1_val a0_ind a0_val a1_ind a1_val modul size i))))
;
;(assign)  modul := (1-modul)
(assert (forall ((a0_ind Int) (a0_val Int) (a1_ind Int) (a1_val Int) (b0_ind Int) (b0_val Int) (b1_ind Int) (b1_val Int) (i Int) (modul Int) (res0_ind Int) (res0_val Int) (res1_ind Int) (res1_val Int) (size Int)) (=> (and (< a0_ind a1_ind) (< b0_ind b1_ind) (< res0_ind res1_ind) (assign_225_37_5 res0_ind res0_val res1_ind res1_val b0_ind b0_val b1_ind b1_val a0_ind a0_val a1_ind a1_val modul size i)) (assign_234_38_5 res0_ind res0_val res1_ind res1_val b0_ind b0_val b1_ind b1_val a0_ind a0_val a1_ind a1_val (- 1 modul) size i))))
;
;(assign)  i := (i+1)
(assert (forall ((a0_ind Int) (a0_val Int) (a1_ind Int) (a1_val Int) (b0_ind Int) (b0_val Int) (b1_ind Int) (b1_val Int) (i Int) (modul Int) (res0_ind Int) (res0_val Int) (res1_ind Int) (res1_val Int) (size Int)) (=> (and (< a0_ind a1_ind) (< b0_ind b1_ind) (< res0_ind res1_ind) (assign_234_38_5 res0_ind res0_val res1_ind res1_val b0_ind b0_val b1_ind b1_val a0_ind a0_val a1_ind a1_val modul size i)) (while_237_30_1 res0_ind res0_val res1_ind res1_val b0_ind b0_val b1_ind b1_val a0_ind a0_val a1_ind a1_val modul size (+ i 1)))))
(check-sat)
